NAME          COPTPROB
OBJSENSE
  MIN
ROWS
 N  __OBJ___
 L  C0      
 L  C1      
 L  C4      
 L  C8      
 L  C9      
 L  C11     
 L  C14     
 L  C20     
 L  C24     
 L  C27     
 L  C30     
 L  C31     
 L  C35     
 L  C36     
 L  C39     
 L  C41     
 L  C42     
 L  C45     
 L  C47     
 L  C49     
 L  C50     
 L  C52     
 L  C53     
 L  C54     
 L  C57     
 L  C58     
 L  C59     
 L  C61     
 L  C62     
 L  C64     
 L  C66     
 L  C68     
 L  C73     
 L  C74     
 L  C76     
 L  C77     
 L  C78     
 L  C79     
 L  C81     
 L  C82     
 L  C83     
 L  C91     
 L  C92     
 L  C95     
 L  C96     
 L  C99     
 L  C102    
 L  C103    
 L  C104    
 L  C105    
 L  C108    
 L  C112    
 L  C118    
 L  C122    
 L  C123    
 L  C124    
 L  C125    
 L  C127    
 L  C129    
 L  C133    
 L  C136    
 L  C137    
 L  C139    
 L  C140    
 L  C141    
 L  C142    
 L  C143    
 L  C144    
 L  C146    
 L  C147    
 L  C148    
 L  C149    
 L  C154    
 L  C155    
 L  C157    
 L  C158    
 L  C161    
 L  C163    
 L  C164    
 L  C166    
 L  C168    
 L  C169    
 L  C176    
 L  C177    
 L  C180    
 L  C181    
 L  C183    
 L  C185    
 L  C186    
 L  C188    
 L  C189    
 L  C190    
 L  C196    
 L  C197    
 L  C198    
 L  C201    
 L  C202    
 L  C203    
 L  C206    
 L  C207    
 L  C209    
 L  C212    
 L  C213    
 L  C215    
 L  C216    
 L  C222    
 L  C224    
 L  C226    
 L  C230    
 L  C233    
 L  C235    
 L  C237    
 L  C238    
 L  C239    
 L  C241    
 L  C243    
 L  C244    
 L  C245    
 L  C246    
 L  C247    
 L  C248    
 L  C249    
 L  C251    
 L  C253    
 L  C254    
 L  C256    
 L  C258    
 L  C259    
 L  C262    
 L  C263    
 L  C264    
 L  C266    
 L  C267    
 L  C268    
 L  C270    
 L  C272    
 L  C276    
 L  C277    
 L  C280    
 L  C281    
 L  C282    
 L  C284    
 L  C286    
 L  C288    
 L  C290    
 L  C292    
 L  C294    
 L  C296    
 L  C298    
 L  C299    
 L  C301    
 L  C303    
 L  C305    
 L  C307    
 L  C308    
 L  C309    
 L  C310    
 L  C312    
 L  C313    
 L  C314    
 L  C315    
 L  C316    
 L  C318    
 L  C320    
 L  C328    
 L  C332    
 L  C333    
 L  C335    
 L  C336    
 L  C338    
 L  C341    
 L  C342    
 L  C345    
 L  C352    
 L  C354    
 L  C361    
 L  C364    
 L  C366    
 L  C367    
 L  C370    
 L  C371    
 L  C377    
 L  C378    
 L  C379    
 L  C381    
 L  C384    
 L  C386    
 L  C390    
 L  C391    
 L  C392    
 L  C393    
 L  C394    
COLUMNS
    MARKER    'MARKER'                 'INTORG'
    x1        __OBJ___  120
    x1        C1        -1
    x1        C82       -1
    x1        C392      -1
    x2        __OBJ___  589
    x2        C53       -1
    x2        C122      -1
    x2        C188      -1
    x2        C288      -1
    x3        __OBJ___  212
    x3        C11       -1
    x3        C61       -1
    x3        C99       -1
    x4        __OBJ___  86
    x4        C0        -1
    x4        C142      -1
    x4        C149      -1
    x6        __OBJ___  3
    x6        C49       -1
    x6        C314      -1
    x7        __OBJ___  610
    x7        C31       -1
    x7        C59       -1
    x7        C96       -1
    x7        C206      -1
    x9        __OBJ___  345
    x9        C77       -1
    x9        C190      -1
    x9        C294      -1
    x9        C315      -1
    x10       __OBJ___  394
    x10       C52       -1
    x10       C146      -1
    x10       C251      -1
    x14       __OBJ___  870
    x14       C143      -1
    x14       C264      -1
    x14       C299      -1
    x15       __OBJ___  281
    x15       C148      -1
    x15       C158      -1
    x15       C215      -1
    x15       C266      -1
    x16       __OBJ___  117
    x16       C35       -1
    x16       C154      -1
    x16       C268      -1
    x16       C338      -1
    x21       __OBJ___  125
    x21       C50       -1
    x21       C282      -1
    x23       __OBJ___  82
    x23       C36       -1
    x23       C169      -1
    x27       __OBJ___  457
    x27       C54       -1
    x27       C108      -1
    x27       C309      -1
    x27       C364      -1
    x29       __OBJ___  538
    x29       C258      -1
    x29       C292      -1
    x29       C296      -1
    x29       C316      -1
    x30       __OBJ___  391
    x30       C41       -1
    x30       C198      -1
    x31       __OBJ___  664
    x31       C103      -1
    x31       C189      -1
    x32       __OBJ___  631
    x32       C233      -1
    x32       C235      -1
    x32       C298      -1
    x33       __OBJ___  996
    x33       C83       -1
    x33       C249      -1
    x33       C267      -1
    x33       C333      -1
    x34       __OBJ___  646
    x34       C144      -1
    x34       C197      -1
    x34       C226      -1
    x34       C366      -1
    x34       C367      -1
    x36       __OBJ___  73
    x36       C27       -1
    x36       C91       -1
    x36       C212      -1
    x36       C239      -1
    x37       __OBJ___  190
    x37       C47       -1
    x37       C133      -1
    x37       C247      -1
    x37       C310      -1
    x38       __OBJ___  849
    x38       C8        -1
    x38       C68       -1
    x38       C394      -1
    x40       __OBJ___  248
    x40       C112      -1
    x40       C176      -1
    x41       __OBJ___  637
    x41       C118      -1
    x41       C246      -1
    x41       C301      -1
    x41       C336      -1
    x41       C391      -1
    x45       __OBJ___  360
    x45       C147      -1
    x45       C245      -1
    x45       C312      -1
    x48       __OBJ___  386
    x48       C216      -1
    x48       C222      -1
    x49       __OBJ___  816
    x49       C57       -1
    x49       C125      -1
    x49       C161      -1
    x49       C243      -1
    x49       C290      -1
    x52       __OBJ___  298
    x52       C237      -1
    x52       C254      -1
    x52       C328      -1
    x53       __OBJ___  343
    x53       C20       -1
    x53       C207      -1
    x53       C238      -1
    x53       C281      -1
    x53       C307      -1
    x53       C320      -1
    x54       __OBJ___  861
    x54       C305      -1
    x54       C370      -1
    x54       C377      -1
    x56       __OBJ___  162
    x56       C24       -1
    x56       C201      -1
    x56       C345      -1
    x58       __OBJ___  530
    x58       C253      -1
    x58       C263      -1
    x58       C272      -1
    x59       __OBJ___  599
    x59       C81       -1
    x59       C196      -1
    x59       C303      -1
    x62       __OBJ___  285
    x62       C76       -1
    x62       C280      -1
    x62       C378      -1
    x62       C393      -1
    x64       __OBJ___  76
    x64       C62       -1
    x64       C105      -1
    x64       C371      -1
    x65       __OBJ___  284
    x65       C244      -1
    x65       C248      -1
    x67       __OBJ___  571
    x67       C39       -1
    x67       C166      -1
    x67       C241      -1
    x69       __OBJ___  581
    x69       C256      -1
    x69       C354      -1
    x73       __OBJ___  133
    x73       C224      -1
    x73       C384      -1
    x74       __OBJ___  979
    x74       C4        -1
    x74       C9        -1
    x74       C42       -1
    x74       C341      -1
    x76       __OBJ___  483
    x76       C335      -1
    x76       C381      -1
    x76       C386      -1
    x81       __OBJ___  259
    x81       C74       -1
    x81       C127      -1
    x81       C155      -1
    x81       C308      -1
    x82       __OBJ___  433
    x82       C123      -1
    x82       C318      -1
    x86       __OBJ___  186
    x86       C209      -1
    x86       C277      -1
    x87       __OBJ___  353
    x87       C104      -1
    x87       C124      -1
    x92       __OBJ___  508
    x92       C181      -1
    x92       C202      -1
    x92       C270      -1
    x93       __OBJ___  338
    x93       C45       -1
    x93       C64       -1
    x93       C95       -1
    x93       C102      -1
    x93       C203      -1
    x96       __OBJ___  877
    x96       C14       -1
    x96       C58       -1
    x96       C79       -1
    x96       C177      -1
    x98       __OBJ___  271
    x98       C30       -1
    x98       C137      -1
    x98       C186      -1
    x98       C390      -1
    x101      __OBJ___  79
    x101      C296      -1
    x101      C336      -1
    x102      __OBJ___  325
    x102      C105      -1
    x102      C207      -1
    x105      __OBJ___  32
    x105      C64       -1
    x105      C82       -1
    x105      C226      -1
    x105      C239      -1
    x106      __OBJ___  111
    x106      C95       -1
    x106      C245      -1
    x114      __OBJ___  586
    x114      C272      -1
    x114      C393      -1
    x115      __OBJ___  738
    x115      C183      -1
    x115      C201      -1
    x115      C284      -1
    x118      __OBJ___  500
    x118      C83       -1
    x118      C222      -1
    x118      C371      -1
    x119      __OBJ___  888
    x119      C50       -1
    x119      C176      -1
    x119      C258      -1
    x120      __OBJ___  968
    x120      C73       -1
    x120      C202      -1
    x120      C377      -1
    x121      __OBJ___  274
    x121      C123      -1
    x122      __OBJ___  625
    x122      C42       -1
    x122      C57       -1
    x122      C59       -1
    x122      C127      -1
    x123      __OBJ___  409
    x123      C189      -1
    x125      __OBJ___  621
    x125      C136      -1
    x125      C226      -1
    x125      C284      -1
    x125      C379      -1
    x126      __OBJ___  17
    x126      C96       -1
    x126      C140      -1
    x127      __OBJ___  274
    x127      C4        -1
    x127      C148      -1
    x127      C181      -1
    x127      C198      -1
    x130      __OBJ___  348
    x130      C185      -1
    x130      C212      -1
    x130      C276      -1
    x130      C277      -1
    x131      __OBJ___  192
    x131      C68       -1
    x131      C99       -1
    x131      C149      -1
    x131      C318      -1
    x132      __OBJ___  92
    x132      C35       -1
    x132      C206      -1
    x132      C241      -1
    x133      __OBJ___  727
    x133      C244      -1
    x133      C394      -1
    x135      __OBJ___  77
    x135      C238      -1
    x135      C262      -1
    x138      __OBJ___  3
    x138      C62       -1
    x138      C163      -1
    x138      C345      -1
    x140      __OBJ___  64
    x140      C81       -1
    x140      C82       -1
    x143      __OBJ___  721
    x143      C251      -1
    x143      C341      -1
    x146      __OBJ___  400
    x146      C50       -1
    x146      C177      -1
    x146      C249      -1
    x152      __OBJ___  783
    x152      C123      -1
    x152      C127      -1
    x152      C164      -1
    x152      C282      -1
    x154      __OBJ___  180
    x154      C11       -1
    x154      C66       -1
    x159      __OBJ___  396
    x159      C82       -1
    x159      C91       -1
    x159      C284      -1
    x160      __OBJ___  387
    x160      C186      -1
    x160      C256      -1
    x164      __OBJ___  15
    x164      C137      -1
    x164      C281      -1
    x164      C378      -1
    x167      __OBJ___  133
    x167      C53       -1
    x169      __OBJ___  466
    x169      C77       -1
    x169      C99       -1
    x169      C256      -1
    x172      __OBJ___  116
    x172      C96       -1
    x172      C163      -1
    x172      C246      -1
    x174      __OBJ___  165
    x174      C96       -1
    x174      C280      -1
    x174      C299      -1
    x177      __OBJ___  267
    x177      C20       -1
    x177      C74       -1
    x177      C78       -1
    x177      C352      -1
    x177      C391      -1
    x179      __OBJ___  167
    x179      C141      -1
    x179      C384      -1
    x182      __OBJ___  673
    x182      C183      -1
    x182      C207      -1
    x182      C266      -1
    x182      C341      -1
    x184      __OBJ___  643
    x184      C177      -1
    x184      C254      -1
    x184      C308      -1
    x184      C381      -1
    x186      __OBJ___  465
    x186      C207      -1
    x186      C342      -1
    x192      __OBJ___  501
    x192      C99       -1
    x192      C188      -1
    x192      C190      -1
    x193      __OBJ___  684
    x193      C139      -1
    x193      C264      -1
    x193      C390      -1
    x197      __OBJ___  5
    x197      C333      -1
    x198      __OBJ___  987
    x198      C82       -1
    x198      C238      -1
    x198      C305      -1
    x198      C393      -1
    x199      __OBJ___  154
    x199      C8        -1
    x199      C166      -1
    x199      C239      -1
    x199      C332      -1
    x200      __OBJ___  229
    x200      C212      -1
    x200      C288      -1
    x200      C307      -1
    x203      __OBJ___  754
    x203      C41       -1
    x203      C386      -1
    x204      __OBJ___  759
    x204      C79       -1
    x204      C133      -1
    x204      C197      -1
    x204      C248      -1
    x204      C254      -1
    x204      C370      -1
    x204      C394      -1
    x205      __OBJ___  744
    x205      C66       -1
    x205      C301      -1
    x205      C364      -1
    x208      __OBJ___  490
    x208      C177      -1
    x208      C259      -1
    x208      C303      -1
    x210      __OBJ___  459
    x210      C83       -1
    x210      C95       -1
    x210      C158      -1
    x210      C379      -1
    x212      __OBJ___  10
    x212      C27       -1
    x212      C82       -1
    x212      C222      -1
    x215      __OBJ___  252
    x215      C139      -1
    x215      C157      -1
    x215      C290      -1
    x216      __OBJ___  276
    x216      C207      -1
    x216      C253      -1
    x221      __OBJ___  899
    x221      C103      -1
    x221      C144      -1
    x221      C207      -1
    x222      __OBJ___  681
    x222      C52       -1
    x222      C53       -1
    x222      C307      -1
    x223      __OBJ___  85
    x223      C310      -1
    x224      __OBJ___  604
    x224      C0        -1
    x224      C53       -1
    x224      C188      -1
    x224      C270      -1
    x226      __OBJ___  261
    x226      C0        -1
    x226      C146      -1
    x226      C230      -1
    x226      C312      -1
    x227      __OBJ___  954
    x227      C4        -1
    x227      C11       -1
    x227      C125      -1
    x228      __OBJ___  475
    x228      C50       -1
    x228      C104      -1
    x228      C307      -1
    x228      C393      -1
    x229      __OBJ___  162
    x229      C154      -1
    x229      C166      -1
    x229      C215      -1
    x229      C262      -1
    x231      __OBJ___  3
    x231      C68       -1
    x231      C148      -1
    x234      __OBJ___  16
    x234      C332      -1
    x236      __OBJ___  100
    x236      C238      -1
    x236      C249      -1
    x238      __OBJ___  858
    x238      C4        -1
    x238      C298      -1
    x239      __OBJ___  531
    x239      C203      -1
    x239      C314      -1
    x239      C335      -1
    x240      __OBJ___  789
    x240      C118      -1
    x240      C186      -1
    x240      C299      -1
    x243      __OBJ___  760
    x243      C262      -1
    x243      C267      -1
    x244      __OBJ___  187
    x244      C82       -1
    x244      C99       -1
    x246      __OBJ___  461
    x246      C189      -1
    x246      C320      -1
    x246      C370      -1
    x246      C371      -1
    x247      __OBJ___  441
    x247      C169      -1
    x247      C256      -1
    x247      C364      -1
    x248      __OBJ___  62
    x248      C58       -1
    x248      C308      -1
    x253      __OBJ___  518
    x253      C1        -1
    x253      C81       -1
    x253      C309      -1
    x253      C312      -1
    x253      C320      -1
    x254      __OBJ___  346
    x254      C270      -1
    x255      __OBJ___  97
    x255      C102      -1
    x255      C198      -1
    x256      __OBJ___  33
    x256      C35       -1
    x257      __OBJ___  12
    x257      C185      -1
    x257      C259      -1
    x257      C281      -1
    x258      __OBJ___  836
    x258      C144      -1
    x258      C168      -1
    x258      C176      -1
    x259      __OBJ___  378
    x259      C66       -1
    x259      C284      -1
    x259      C370      -1
    x262      __OBJ___  118
    x262      C30       -1
    x262      C122      -1
    x262      C142      -1
    x262      C256      -1
    x262      C316      -1
    x262      C336      -1
    x268      __OBJ___  407
    x268      C24       -1
    x268      C157      -1
    x268      C233      -1
    x268      C244      -1
    x269      __OBJ___  202
    x269      C45       -1
    x269      C237      -1
    x270      __OBJ___  469
    x270      C39       -1
    x270      C129      -1
    x270      C157      -1
    x270      C180      -1
    x274      __OBJ___  298
    x274      C9        -1
    x274      C136      -1
    x274      C209      -1
    x274      C235      -1
    x274      C243      -1
    x275      __OBJ___  879
    x275      C146      -1
    x275      C161      -1
    x275      C341      -1
    x280      __OBJ___  412
    x280      C27       -1
    x280      C36       -1
    x280      C243      -1
    x280      C246      -1
    x281      __OBJ___  279
    x281      C243      -1
    x283      __OBJ___  623
    x283      C112      -1
    x283      C143      -1
    x283      C328      -1
    x285      __OBJ___  797
    x285      C14       -1
    x285      C378      -1
    x286      __OBJ___  836
    x286      C377      -1
    x287      __OBJ___  177
    x287      C0        -1
    x287      C92       -1
    x287      C177      -1
    x287      C338      -1
    x288      __OBJ___  1
    x288      C259      -1
    x288      C315      -1
    x289      __OBJ___  191
    x289      C235      -1
    x292      __OBJ___  92
    x292      C9        -1
    x294      __OBJ___  7
    x294      C215      -1
    x294      C328      -1
    x295      __OBJ___  83
    x295      C47       -1
    x295      C61       -1
    x295      C332      -1
    x296      __OBJ___  312
    x296      C146      -1
    x296      C316      -1
    x296      C391      -1
    x299      __OBJ___  256
    x299      C207      -1
    x299      C235      -1
    x299      C328      -1
    x299      C352      -1
    x300      __OBJ___  229
    x300      C77       -1
    x302      __OBJ___  674
    x302      C41       -1
    x302      C123      -1
    x302      C140      -1
    x303      __OBJ___  236
    x303      C76       -1
    x303      C164      -1
    x303      C276      -1
    x303      C299      -1
    x303      C379      -1
    x308      __OBJ___  146
    x308      C64       -1
    x308      C286      -1
    x309      __OBJ___  57
    x309      C140      -1
    x309      C147      -1
    x316      __OBJ___  42
    x316      C122      -1
    x316      C163      -1
    x316      C248      -1
    x316      C366      -1
    x318      __OBJ___  530
    x318      C31       -1
    x318      C186      -1
    x318      C213      -1
    x318      C338      -1
    x319      __OBJ___  329
    x319      C42       -1
    x319      C73       -1
    x321      __OBJ___  883
    x321      C186      -1
    x321      C268      -1
    x321      C352      -1
    x321      C354      -1
    x321      C370      -1
    x322      __OBJ___  291
    x322      C124      -1
    x322      C181      -1
    x324      __OBJ___  291
    x324      C92       -1
    x324      C180      -1
    x324      C222      -1
    x324      C313      -1
    x328      __OBJ___  130
    x328      C288      -1
    x330      __OBJ___  123
    x330      C24       -1
    x330      C180      -1
    x330      C213      -1
    x330      C230      -1
    x330      C367      -1
    x331      __OBJ___  115
    x331      C141      -1
    x331      C310      -1
    x337      __OBJ___  502
    x337      C20       -1
    x337      C189      -1
    x338      __OBJ___  431
    x338      C30       -1
    x338      C54       -1
    x338      C58       -1
    x340      __OBJ___  327
    x340      C68       -1
    x340      C77       -1
    x340      C166      -1
    x340      C183      -1
    x340      C284      -1
    x344      __OBJ___  579
    x344      C59       -1
    x344      C79       -1
    x345      __OBJ___  224
    x345      C57       -1
    x345      C105      -1
    x345      C168      -1
    x345      C247      -1
    x346      __OBJ___  417
    x346      C49       -1
    x346      C181      -1
    x346      C264      -1
    x346      C292      -1
    x347      __OBJ___  489
    x347      C158      -1
    x347      C312      -1
    x347      C381      -1
    x348      __OBJ___  981
    x348      C59       -1
    x348      C239      -1
    x348      C267      -1
    x348      C361      -1
    x349      __OBJ___  91
    x349      C222      -1
    x349      C224      -1
    x349      C299      -1
    x351      __OBJ___  345
    x351      C79       -1
    x351      C91       -1
    x351      C127      -1
    x351      C333      -1
    x352      __OBJ___  173
    x352      C158      -1
    x352      C215      -1
    x353      __OBJ___  697
    x353      C52       -1
    x353      C118      -1
    x355      __OBJ___  76
    x355      C163      -1
    x355      C181      -1
    x355      C308      -1
    x356      __OBJ___  447
    x356      C35       -1
    x356      C41       -1
    x356      C366      -1
    x357      __OBJ___  33
    x357      C222      -1
    x357      C336      -1
    x357      C338      -1
    x357      C361      -1
    x362      __OBJ___  378
    x362      C251      -1
    x362      C288      -1
    x363      __OBJ___  206
    x363      C79       -1
    x363      C206      -1
    x365      __OBJ___  764
    x365      C78       -1
    x365      C313      -1
    x365      C379      -1
    x369      __OBJ___  945
    x369      C42       -1
    x369      C201      -1
    x369      C335      -1
    x370      __OBJ___  449
    x370      C41       -1
    x370      C99       -1
    x373      __OBJ___  477
    x373      C206      -1
    x373      C216      -1
    x373      C294      -1
    x375      __OBJ___  119
    x375      C238      -1
    x375      C280      -1
    x378      __OBJ___  803
    x378      C35       -1
    x378      C36       -1
    x378      C125      -1
    x378      C155      -1
    x378      C243      -1
    x378      C364      -1
    x379      __OBJ___  364
    x379      C42       -1
    x379      C68       -1
    x379      C286      -1
    x381      __OBJ___  513
    x381      C198      -1
    x381      C286      -1
    x381      C294      -1
    x384      __OBJ___  111
    x384      C166      -1
    x384      C290      -1
    x385      __OBJ___  83
    x385      C129      -1
    x385      C196      -1
    x385      C268      -1
    x385      C370      -1
    x389      __OBJ___  530
    x389      C118      -1
    x389      C188      -1
    x391      __OBJ___  103
    x391      C108      -1
    x392      __OBJ___  956
    x392      C197      -1
    x392      C292      -1
    x395      __OBJ___  237
    x395      C61       -1
    x395      C342      -1
    x396      __OBJ___  801
    x396      C96       -1
    x396      C125      -1
    x396      C216      -1
    x397      __OBJ___  27
    x397      C390      -1
    x399      __OBJ___  82
    x399      C263      -1
    x399      C392      -1
    x400      __OBJ___  406
    x400      C108      -1
    x400      C161      -1
    x400      C316      -1
    MARKER    'MARKER'                 'INTEND'
RHS
    RHS       __OBJ___  -15945
    RHS       C0        -1
    RHS       C1        -1
    RHS       C4        -1
    RHS       C8        -1
    RHS       C9        -1
    RHS       C11       -1
    RHS       C14       -1
    RHS       C20       -1
    RHS       C24       -1
    RHS       C27       -1
    RHS       C30       -1
    RHS       C31       -1
    RHS       C35       -1
    RHS       C36       -1
    RHS       C39       -1
    RHS       C41       -1
    RHS       C42       -1
    RHS       C45       -1
    RHS       C47       -1
    RHS       C49       -1
    RHS       C50       -1
    RHS       C52       -1
    RHS       C53       -1
    RHS       C54       -1
    RHS       C57       -1
    RHS       C58       -1
    RHS       C59       -1
    RHS       C61       -1
    RHS       C62       -1
    RHS       C64       -1
    RHS       C66       -1
    RHS       C68       -1
    RHS       C73       -1
    RHS       C74       -1
    RHS       C76       -1
    RHS       C77       -1
    RHS       C78       -1
    RHS       C79       -1
    RHS       C81       -1
    RHS       C82       -1
    RHS       C83       -1
    RHS       C91       -1
    RHS       C92       -1
    RHS       C95       -1
    RHS       C96       -1
    RHS       C99       -1
    RHS       C102      -1
    RHS       C103      -1
    RHS       C104      -1
    RHS       C105      -1
    RHS       C108      -1
    RHS       C112      -1
    RHS       C118      -1
    RHS       C122      -1
    RHS       C123      -1
    RHS       C124      -1
    RHS       C125      -1
    RHS       C127      -1
    RHS       C129      -1
    RHS       C133      -1
    RHS       C136      -1
    RHS       C137      -1
    RHS       C139      -1
    RHS       C140      -1
    RHS       C141      -1
    RHS       C142      -1
    RHS       C143      -1
    RHS       C144      -1
    RHS       C146      -1
    RHS       C147      -1
    RHS       C148      -1
    RHS       C149      -1
    RHS       C154      -1
    RHS       C155      -1
    RHS       C157      -1
    RHS       C158      -1
    RHS       C161      -1
    RHS       C163      -1
    RHS       C164      -1
    RHS       C166      -1
    RHS       C168      -1
    RHS       C169      -1
    RHS       C176      -1
    RHS       C177      -1
    RHS       C180      -1
    RHS       C181      -1
    RHS       C183      -1
    RHS       C185      -1
    RHS       C186      -1
    RHS       C188      -1
    RHS       C189      -1
    RHS       C190      -1
    RHS       C196      -1
    RHS       C197      -1
    RHS       C198      -1
    RHS       C201      -1
    RHS       C202      -1
    RHS       C203      -1
    RHS       C206      -1
    RHS       C207      -1
    RHS       C209      -1
    RHS       C212      -1
    RHS       C213      -1
    RHS       C215      -1
    RHS       C216      -1
    RHS       C222      -1
    RHS       C224      -1
    RHS       C226      -1
    RHS       C230      -1
    RHS       C233      -1
    RHS       C235      -1
    RHS       C237      -1
    RHS       C238      -1
    RHS       C239      -1
    RHS       C241      -1
    RHS       C243      -1
    RHS       C244      -1
    RHS       C245      -1
    RHS       C246      -1
    RHS       C247      -1
    RHS       C248      -1
    RHS       C249      -1
    RHS       C251      -1
    RHS       C253      -1
    RHS       C254      -1
    RHS       C256      -1
    RHS       C258      -1
    RHS       C259      -1
    RHS       C262      -1
    RHS       C263      -1
    RHS       C264      -1
    RHS       C266      -1
    RHS       C267      -1
    RHS       C268      -1
    RHS       C270      -1
    RHS       C272      -1
    RHS       C276      -1
    RHS       C277      -1
    RHS       C280      -1
    RHS       C281      -1
    RHS       C282      -1
    RHS       C284      -1
    RHS       C286      -1
    RHS       C288      -1
    RHS       C290      -1
    RHS       C292      -1
    RHS       C294      -1
    RHS       C296      -1
    RHS       C298      -1
    RHS       C299      -1
    RHS       C301      -1
    RHS       C303      -1
    RHS       C305      -1
    RHS       C307      -1
    RHS       C308      -1
    RHS       C309      -1
    RHS       C310      -1
    RHS       C312      -1
    RHS       C313      -1
    RHS       C314      -1
    RHS       C315      -1
    RHS       C316      -1
    RHS       C318      -1
    RHS       C320      -1
    RHS       C328      -1
    RHS       C332      -1
    RHS       C333      -1
    RHS       C335      -1
    RHS       C336      -1
    RHS       C338      -1
    RHS       C341      -1
    RHS       C342      -1
    RHS       C345      -1
    RHS       C352      -1
    RHS       C354      -1
    RHS       C361      -1
    RHS       C364      -1
    RHS       C366      -1
    RHS       C367      -1
    RHS       C370      -1
    RHS       C371      -1
    RHS       C377      -1
    RHS       C378      -1
    RHS       C379      -1
    RHS       C381      -1
    RHS       C384      -1
    RHS       C386      -1
    RHS       C390      -1
    RHS       C391      -1
    RHS       C392      -1
    RHS       C393      -1
    RHS       C394      -1
BOUNDS
 UP BOUND     x1        1
 UP BOUND     x2        1
 UP BOUND     x3        1
 UP BOUND     x4        1
 UP BOUND     x6        1
 UP BOUND     x7        1
 UP BOUND     x9        1
 UP BOUND     x10       1
 UP BOUND     x14       1
 UP BOUND     x15       1
 UP BOUND     x16       1
 UP BOUND     x21       1
 UP BOUND     x23       1
 UP BOUND     x27       1
 UP BOUND     x29       1
 UP BOUND     x30       1
 UP BOUND     x31       1
 UP BOUND     x32       1
 UP BOUND     x33       1
 UP BOUND     x34       1
 UP BOUND     x36       1
 UP BOUND     x37       1
 UP BOUND     x38       1
 UP BOUND     x40       1
 UP BOUND     x41       1
 UP BOUND     x45       1
 UP BOUND     x48       1
 UP BOUND     x49       1
 UP BOUND     x52       1
 UP BOUND     x53       1
 UP BOUND     x54       1
 UP BOUND     x56       1
 UP BOUND     x58       1
 UP BOUND     x59       1
 UP BOUND     x62       1
 UP BOUND     x64       1
 UP BOUND     x65       1
 UP BOUND     x67       1
 UP BOUND     x69       1
 UP BOUND     x73       1
 UP BOUND     x74       1
 UP BOUND     x76       1
 UP BOUND     x81       1
 UP BOUND     x82       1
 UP BOUND     x86       1
 UP BOUND     x87       1
 UP BOUND     x92       1
 UP BOUND     x93       1
 UP BOUND     x96       1
 UP BOUND     x98       1
 UP BOUND     x101      1
 UP BOUND     x102      1
 UP BOUND     x105      1
 UP BOUND     x106      1
 UP BOUND     x114      1
 UP BOUND     x115      1
 UP BOUND     x118      1
 UP BOUND     x119      1
 UP BOUND     x120      1
 UP BOUND     x121      1
 UP BOUND     x122      1
 UP BOUND     x123      1
 UP BOUND     x125      1
 UP BOUND     x126      1
 UP BOUND     x127      1
 UP BOUND     x130      1
 UP BOUND     x131      1
 UP BOUND     x132      1
 UP BOUND     x133      1
 UP BOUND     x135      1
 UP BOUND     x138      1
 UP BOUND     x140      1
 UP BOUND     x143      1
 UP BOUND     x146      1
 UP BOUND     x152      1
 UP BOUND     x154      1
 UP BOUND     x159      1
 UP BOUND     x160      1
 UP BOUND     x164      1
 UP BOUND     x167      1
 UP BOUND     x169      1
 UP BOUND     x172      1
 UP BOUND     x174      1
 UP BOUND     x177      1
 UP BOUND     x179      1
 UP BOUND     x182      1
 UP BOUND     x184      1
 UP BOUND     x186      1
 UP BOUND     x192      1
 UP BOUND     x193      1
 UP BOUND     x197      1
 UP BOUND     x198      1
 UP BOUND     x199      1
 UP BOUND     x200      1
 UP BOUND     x203      1
 UP BOUND     x204      1
 UP BOUND     x205      1
 UP BOUND     x208      1
 UP BOUND     x210      1
 UP BOUND     x212      1
 UP BOUND     x215      1
 UP BOUND     x216      1
 UP BOUND     x221      1
 UP BOUND     x222      1
 UP BOUND     x223      1
 UP BOUND     x224      1
 UP BOUND     x226      1
 UP BOUND     x227      1
 UP BOUND     x228      1
 UP BOUND     x229      1
 UP BOUND     x231      1
 UP BOUND     x234      1
 UP BOUND     x236      1
 UP BOUND     x238      1
 UP BOUND     x239      1
 UP BOUND     x240      1
 UP BOUND     x243      1
 UP BOUND     x244      1
 UP BOUND     x246      1
 UP BOUND     x247      1
 UP BOUND     x248      1
 UP BOUND     x253      1
 UP BOUND     x254      1
 UP BOUND     x255      1
 UP BOUND     x256      1
 UP BOUND     x257      1
 UP BOUND     x258      1
 UP BOUND     x259      1
 UP BOUND     x262      1
 UP BOUND     x268      1
 UP BOUND     x269      1
 UP BOUND     x270      1
 UP BOUND     x274      1
 UP BOUND     x275      1
 UP BOUND     x280      1
 UP BOUND     x281      1
 UP BOUND     x283      1
 UP BOUND     x285      1
 UP BOUND     x286      1
 UP BOUND     x287      1
 UP BOUND     x288      1
 UP BOUND     x289      1
 UP BOUND     x292      1
 UP BOUND     x294      1
 UP BOUND     x295      1
 UP BOUND     x296      1
 UP BOUND     x299      1
 UP BOUND     x300      1
 UP BOUND     x302      1
 UP BOUND     x303      1
 UP BOUND     x308      1
 UP BOUND     x309      1
 UP BOUND     x316      1
 UP BOUND     x318      1
 UP BOUND     x319      1
 UP BOUND     x321      1
 UP BOUND     x322      1
 UP BOUND     x324      1
 UP BOUND     x328      1
 UP BOUND     x330      1
 UP BOUND     x331      1
 UP BOUND     x337      1
 UP BOUND     x338      1
 UP BOUND     x340      1
 UP BOUND     x344      1
 UP BOUND     x345      1
 UP BOUND     x346      1
 UP BOUND     x347      1
 UP BOUND     x348      1
 UP BOUND     x349      1
 UP BOUND     x351      1
 UP BOUND     x352      1
 UP BOUND     x353      1
 UP BOUND     x355      1
 UP BOUND     x356      1
 UP BOUND     x357      1
 UP BOUND     x362      1
 UP BOUND     x363      1
 UP BOUND     x365      1
 UP BOUND     x369      1
 UP BOUND     x370      1
 UP BOUND     x373      1
 UP BOUND     x375      1
 UP BOUND     x378      1
 UP BOUND     x379      1
 UP BOUND     x381      1
 UP BOUND     x384      1
 UP BOUND     x385      1
 UP BOUND     x389      1
 UP BOUND     x391      1
 UP BOUND     x392      1
 UP BOUND     x395      1
 UP BOUND     x396      1
 UP BOUND     x397      1
 UP BOUND     x399      1
 UP BOUND     x400      1
ENDATA
